3 9 1 6 4 4 0 7 6 2 2 6 5 3
1 4 0 6 2 7 4 4 6 7 3 11 5 2
6 7 2 4 3 4 4 5 5 10 0 7 1 5
2 9 4 5 3 7 6 2 1 10 5 7 0 2
0 2 4 3 5 6 3 5 1 6 6 4 2 7
4 7 0 11 5 2 3 10 1 10 6 3 2 3
3 4 2 8 6 7 5 7 4 7 0 11 1 3
